(declare-const c_0 Real)
(declare-const c_1 Real)
(declare-const c_2 Real)
(declare-const c_3 Real)
(declare-const c_4 Real)
(declare-const c_5 Real)
(declare-const c_6 Real)
(declare-const c_7 Real)
(declare-const c_8 Real)
(declare-const c_9 Real)
(declare-const c_10 Real)
(declare-const c_11 Real)
(declare-const c_12 Real)
(declare-const c_13 Real)
(declare-const c_14 Real)
(declare-const c_15 Real)
(declare-const c_16 Real)
(declare-const c_17 Real)
(declare-const c_18 Real)
(declare-const c_19 Real)
(declare-const c_20 Real)
(declare-const c_21 Real)
(declare-const c_22 Real)
(declare-const c_23 Real)
(declare-const c_24 Real)
(declare-const c_25 Real)
(declare-const c_26 Real)
(declare-const c_27 Real)
(declare-const c_28 Real)
(declare-const c_29 Real)
(declare-const s_0 Real)
(declare-const s_1 Real)
(declare-const s_2 Real)
(declare-const s_3 Real)
(declare-const s_4 Real)
(declare-const s_5 Real)
(declare-const s_6 Real)
(declare-const s_7 Real)
(declare-const s_8 Real)
(declare-const s_9 Real)
(declare-const s_10 Real)
(declare-const s_11 Real)
(declare-const s_12 Real)
(declare-const s_13 Real)
(declare-const s_14 Real)
(declare-const s_15 Real)
(declare-const s_16 Real)
(declare-const s_17 Real)
(declare-const s_18 Real)
(declare-const s_19 Real)
(declare-const s_20 Real)
(declare-const s_21 Real)
(declare-const s_22 Real)
(declare-const s_23 Real)
(declare-const s_24 Real)
(declare-const s_25 Real)
(declare-const s_26 Real)
(declare-const s_27 Real)
(declare-const s_28 Real)
(declare-const s_29 Real)
(assert (forall ((temp Real) (bob Real) (samantha Real) ) (=> (and (>= (+ (* 1024 1) (* 1 temp ) ) 0) (>= (+ (* 1023 1) (* (- 1) temp ) ) 0) (>= (+ (* 1024 1) (* 1 bob ) ) 0) (>= (+ (* 1023 1) (* (- 1) bob ) ) 0) (>= (+ (* 1024 1) (* 1 samantha ) ) 0) (>= (+ (* 1023 1) (* (- 1) samantha ) ) 0) ) (>= (+ (* 1 bob s_1 ) (* 1 bob s_2 samantha ) (* 1 bob s_3 temp ) (* 1 bob bob s_4 ) (* 1 s_0 ) (* 1 s_5 samantha ) (* 1 s_6 samantha temp ) (* 1 s_7 samantha samantha ) (* 1 s_8 temp ) (* 1 s_9 temp temp ) ) 0) )))
(assert (forall ((temp Real) (bob Real) (samantha Real) ) (=> (and (>= (+ (* 1024 1) (* 1 temp ) ) 0) (>= (+ (* 1023 1) (* (- 1) temp ) ) 0) (>= (+ (* 1024 1) (* 1 bob ) ) 0) (>= (+ (* 1023 1) (* (- 1) bob ) ) 0) (>= (+ (* 1024 1) (* 1 samantha ) ) 0) (>= (+ (* 1023 1) (* (- 1) samantha ) ) 0) ) (>= (+ (* 1 bob c_1 ) (* 1 bob c_2 samantha ) (* 1 bob c_3 temp ) (* 1 bob bob c_4 ) (* 1 c_0 ) (* 1 c_5 samantha ) (* 1 c_6 samantha temp ) (* 1 c_7 samantha samantha ) (* 1 c_8 temp ) (* 1 c_9 temp temp ) ) 0) )))
(assert (forall ((temp Real) (bob Real) (samantha Real) ) (=> (and (>= (+ (* 1023 1) (* (- 1) samantha ) ) 0) (>= (+ (* 1024 1) (* 1 samantha ) ) 0) (>= (+ (* 1023 1) (* (- 1) bob ) ) 0) (>= (+ (* 1024 1) (* 1 bob ) ) 0) (>= (+ (* 1023 1) (* (- 1) temp ) ) 0) (>= (+ (* 1024 1) (* 1 temp ) ) 0) (>= (+ (* 1 bob s_1 ) (* 1 bob s_2 samantha ) (* 1 bob s_3 temp ) (* 1 bob bob s_4 ) (* 1 s_0 ) (* 1 s_5 samantha ) (* 1 s_6 samantha temp ) (* 1 s_7 samantha samantha ) (* 1 s_8 temp ) (* 1 s_9 temp temp ) ) 0) ) (>= (+ (* 1 s_10 ) (* 13 s_11 ) (* 221 s_12 ) (* 13 s_13 temp ) (* 169 s_14 ) (* 17 s_15 ) (* 17 s_16 temp ) (* 289 s_17 ) (* 1 s_18 temp ) (* 1 s_19 temp temp ) ) 0) )))
(assert (forall ((temp Real) (bob Real) (samantha Real) ) (=> (and (>= (+ (* 1023 1) (* (- 1) samantha ) ) 0) (>= (+ (* 1024 1) (* 1 samantha ) ) 0) (>= (+ (* 1023 1) (* (- 1) bob ) ) 0) (>= (+ (* 1024 1) (* 1 bob ) ) 0) (>= (+ (* 1023 1) (* (- 1) temp ) ) 0) (>= (+ (* 1024 1) (* 1 temp ) ) 0) (>= (+ (* 1 bob s_1 ) (* 1 bob s_2 samantha ) (* 1 bob s_3 temp ) (* 1 bob bob s_4 ) (* 1 s_0 ) (* 1 s_5 samantha ) (* 1 s_6 samantha temp ) (* 1 s_7 samantha samantha ) (* 1 s_8 temp ) (* 1 s_9 temp temp ) ) 0) ) (>= (+ (* 1 c_10 ) (* 13 c_11 ) (* 221 c_12 ) (* 13 c_13 temp ) (* 169 c_14 ) (* 17 c_15 ) (* 17 c_16 temp ) (* 289 c_17 ) (* 1 c_18 temp ) (* 1 c_19 temp temp ) ) 0) )))
(assert (forall ((temp Real) (bob Real) (samantha Real) ) (=> (and (>= (+ (* 1023 1) (* (- 1) samantha ) ) 0) (>= (+ (* 1024 1) (* 1 samantha ) ) 0) (>= (+ (* 1023 1) (* (- 1) bob ) ) 0) (>= (+ (* 1024 1) (* 1 bob ) ) 0) (>= (+ (* 1023 1) (* (- 1) temp ) ) 0) (>= (+ (* 1024 1) (* 1 temp ) ) 0) (>= (+ (* 1 bob s_1 ) (* 1 bob s_2 samantha ) (* 1 bob s_3 temp ) (* 1 bob bob s_4 ) (* 1 s_0 ) (* 1 s_5 samantha ) (* 1 s_6 samantha temp ) (* 1 s_7 samantha samantha ) (* 1 s_8 temp ) (* 1 s_9 temp temp ) ) 0) ) (>= (+ (* (- 1) 1) (* 1 bob c_1 ) (* 1 bob c_2 samantha ) (* 1 bob c_3 temp ) (* 1 bob bob c_4 ) (* 1 c_0 ) (* (- 1) c_10 ) (* (- 13) c_11 ) (* (- 221) c_12 ) (* (- 13) c_13 temp ) (* (- 169) c_14 ) (* (- 17) c_15 ) (* (- 17) c_16 temp ) (* (- 289) c_17 ) (* (- 1) c_18 temp ) (* (- 1) c_19 temp temp ) (* 1 c_5 samantha ) (* 1 c_6 samantha temp ) (* 1 c_7 samantha samantha ) (* 1 c_8 temp ) (* 1 c_9 temp temp ) ) 0) )))
(assert (forall ((temp Real) (bob Real) (samantha Real) ) (=> (and (>= (+ (* 99 1) (* (- 1) bob ) (* (- 1) samantha ) ) 0) (>= (+ (* (- 13533) 1) (* 1037 samantha ) (* 4 temp ) ) 0) (>= (+ (* 17 1) (* (- 1) samantha ) ) 0) (>= (+ (* (- 6539) 1) (* 505 samantha ) (* (- 2) temp ) ) 0) (>= (+ (* 30 1) (* (- 1) bob ) (* (- 1) samantha ) ) 0) (>= (+ (* (- 30) 1) (* 1 bob ) (* 1 samantha ) ) 0) (>= (+ (* 1 bob s_11 ) (* 1 bob s_12 samantha ) (* 1 bob s_13 temp ) (* 1 bob bob s_14 ) (* 1 s_10 ) (* 1 s_15 samantha ) (* 1 s_16 samantha temp ) (* 1 s_17 samantha samantha ) (* 1 s_18 temp ) (* 1 s_19 temp temp ) ) 0) ) (>= (+ (* 1 bob s_12 samantha ) (* 1 bob s_13 samantha ) (* 1 bob s_15 ) (* 1 bob s_18 ) (* 1 bob bob s_16 ) (* 1 bob bob s_17 ) (* 1 bob bob s_19 ) (* 1 s_10 ) (* 1 s_11 samantha ) (* 1 s_14 samantha samantha ) ) 0) )))
(assert (forall ((temp Real) (bob Real) (samantha Real) ) (=> (and (>= (+ (* 99 1) (* (- 1) bob ) (* (- 1) samantha ) ) 0) (>= (+ (* (- 13533) 1) (* 1037 samantha ) (* 4 temp ) ) 0) (>= (+ (* 17 1) (* (- 1) samantha ) ) 0) (>= (+ (* (- 6539) 1) (* 505 samantha ) (* (- 2) temp ) ) 0) (>= (+ (* 30 1) (* (- 1) bob ) (* (- 1) samantha ) ) 0) (>= (+ (* (- 30) 1) (* 1 bob ) (* 1 samantha ) ) 0) (>= (+ (* 1 bob s_11 ) (* 1 bob s_12 samantha ) (* 1 bob s_13 temp ) (* 1 bob bob s_14 ) (* 1 s_10 ) (* 1 s_15 samantha ) (* 1 s_16 samantha temp ) (* 1 s_17 samantha samantha ) (* 1 s_18 temp ) (* 1 s_19 temp temp ) ) 0) ) (>= (+ (* 1 bob c_12 samantha ) (* 1 bob c_13 samantha ) (* 1 bob c_15 ) (* 1 bob c_18 ) (* 1 bob bob c_16 ) (* 1 bob bob c_17 ) (* 1 bob bob c_19 ) (* 1 c_10 ) (* 1 c_11 samantha ) (* 1 c_14 samantha samantha ) ) 0) )))
(assert (forall ((temp Real) (bob Real) (samantha Real) ) (=> (and (>= (+ (* 99 1) (* (- 1) bob ) (* (- 1) samantha ) ) 0) (>= (+ (* (- 13533) 1) (* 1037 samantha ) (* 4 temp ) ) 0) (>= (+ (* 17 1) (* (- 1) samantha ) ) 0) (>= (+ (* (- 6539) 1) (* 505 samantha ) (* (- 2) temp ) ) 0) (>= (+ (* 30 1) (* (- 1) bob ) (* (- 1) samantha ) ) 0) (>= (+ (* (- 30) 1) (* 1 bob ) (* 1 samantha ) ) 0) (>= (+ (* 1 bob s_11 ) (* 1 bob s_12 samantha ) (* 1 bob s_13 temp ) (* 1 bob bob s_14 ) (* 1 s_10 ) (* 1 s_15 samantha ) (* 1 s_16 samantha temp ) (* 1 s_17 samantha samantha ) (* 1 s_18 temp ) (* 1 s_19 temp temp ) ) 0) ) (>= (+ (* (- 1) 1) (* 1 bob c_11 ) (* (- 1) bob c_13 samantha ) (* 1 bob c_13 temp ) (* (- 1) bob c_15 ) (* (- 1) bob c_18 ) (* 1 bob bob c_14 ) (* (- 1) bob bob c_16 ) (* (- 1) bob bob c_17 ) (* (- 1) bob bob c_19 ) (* (- 1) c_11 samantha ) (* (- 1) c_14 samantha samantha ) (* 1 c_15 samantha ) (* 1 c_16 samantha temp ) (* 1 c_17 samantha samantha ) (* 1 c_18 temp ) (* 1 c_19 temp temp ) ) 0) )))
(assert (forall ((temp Real) (bob Real) (samantha Real) ) (=> (and (>= (+ (* (- 100) 1) (* 1 bob ) (* 1 samantha ) ) 0) (>= (+ (* (- 13533) 1) (* 1037 samantha ) (* 4 temp ) ) 0) (>= (+ (* 17 1) (* (- 1) samantha ) ) 0) (>= (+ (* (- 6539) 1) (* 505 samantha ) (* (- 2) temp ) ) 0) (>= (+ (* 30 1) (* (- 1) bob ) (* (- 1) samantha ) ) 0) (>= (+ (* (- 30) 1) (* 1 bob ) (* 1 samantha ) ) 0) (>= (+ (* 1 bob s_11 ) (* 1 bob s_12 samantha ) (* 1 bob s_13 temp ) (* 1 bob bob s_14 ) (* 1 s_10 ) (* 1 s_15 samantha ) (* 1 s_16 samantha temp ) (* 1 s_17 samantha samantha ) (* 1 s_18 temp ) (* 1 s_19 temp temp ) ) 0) ) (>= (+ (* 1 bob s_21 ) (* 1 bob s_22 samantha ) (* 1 bob s_23 temp ) (* 1 bob bob s_24 ) (* 1 s_20 ) (* 1 s_25 samantha ) (* 1 s_26 samantha temp ) (* 1 s_27 samantha samantha ) (* 1 s_28 temp ) (* 1 s_29 temp temp ) ) 0) )))
(assert (forall ((temp Real) (bob Real) (samantha Real) ) (=> (and (>= (+ (* (- 100) 1) (* 1 bob ) (* 1 samantha ) ) 0) (>= (+ (* (- 13533) 1) (* 1037 samantha ) (* 4 temp ) ) 0) (>= (+ (* 17 1) (* (- 1) samantha ) ) 0) (>= (+ (* (- 6539) 1) (* 505 samantha ) (* (- 2) temp ) ) 0) (>= (+ (* 30 1) (* (- 1) bob ) (* (- 1) samantha ) ) 0) (>= (+ (* (- 30) 1) (* 1 bob ) (* 1 samantha ) ) 0) (>= (+ (* 1 bob s_11 ) (* 1 bob s_12 samantha ) (* 1 bob s_13 temp ) (* 1 bob bob s_14 ) (* 1 s_10 ) (* 1 s_15 samantha ) (* 1 s_16 samantha temp ) (* 1 s_17 samantha samantha ) (* 1 s_18 temp ) (* 1 s_19 temp temp ) ) 0) ) (>= (+ (* 1 bob c_21 ) (* 1 bob c_22 samantha ) (* 1 bob c_23 temp ) (* 1 bob bob c_24 ) (* 1 c_20 ) (* 1 c_25 samantha ) (* 1 c_26 samantha temp ) (* 1 c_27 samantha samantha ) (* 1 c_28 temp ) (* 1 c_29 temp temp ) ) 0) )))

(check-sat)
(get-model)
